56743
23, 53, 34, 47, 54, 4, 30, 18, 12, 42, 33, 1, 27, 25, 31, 11, 45, 16, 39, 36, 46, 15, 52, 2, 14, 9, 10, 22, 29, 21, 48, 49, 26, 55, 6, 28, 3, 43, 13, 51, 40, 7, 37, 5, 35, 24, 20, 50, 38, 8, 44, 41, 32, 19, 17
